db/data/28755246726969234952734030804214091617.z3.out
-------------------
2500.096848325
